p tw 336 1024
1 33
2 34
3 35
4 36
5 37
6 38
7 39
8 40
9 41
10 42
11 43
12 44
13 45
14 46
15 47
16 48
17 49
18 50
19 51
20 52
21 53
22 54
23 55
24 56
25 57
26 58
27 59
28 60
29 61
30 62
31 63
32 64
33 90
33 93
33 116
33 117
34 65
34 66
34 67
34 68
35 123
35 132
35 139
35 141
36 113
36 121
36 125
36 126
37 67
37 75
37 135
37 138
38 65
38 69
38 77
38 78
39 83
39 101
39 104
39 105
40 97
40 136
40 142
40 144
41 84
41 116
41 118
41 120
42 99
42 108
42 111
42 112
43 66
43 96
43 106
43 107
44 80
44 101
44 102
44 103
45 77
45 109
45 131
45 134
46 86
46 89
46 90
46 91
47 71
47 127
47 129
47 130
48 79
48 80
48 81
48 82
49 74
49 95
49 99
49 100
50 73
50 83
50 84
50 85
51 102
51 111
51 118
51 119
52 95
52 96
52 97
52 98
53 114
53 129
53 142
53 143
54 106
54 135
54 136
54 137
55 70
55 104
55 127
55 128
56 73
56 74
56 75
56 76
57 89
57 92
57 93
57 94
58 122
58 131
58 132
58 133
59 92
59 108
59 109
59 110
60 69
60 70
60 71
60 72
61 121
61 122
61 123
61 124
62 79
62 86
62 87
62 88
63 87
63 125
63 139
63 140
64 81
64 113
64 114
64 115
65 66
65 67
65 68
65 69
65 77
65 78
66 67
66 68
66 96
66 106
66 107
67 68
67 75
67 135
67 138
68 145
68 146
68 147
68 148
69 70
69 71
69 72
69 77
69 78
70 71
70 72
70 104
70 127
70 128
71 72
71 127
71 129
71 130
72 149
72 150
72 151
72 152
73 74
73 75
73 76
73 83
73 84
73 85
74 75
74 76
74 95
74 99
74 100
75 76
75 135
75 138
76 153
76 154
76 155
76 156
77 78
77 109
77 131
77 134
78 145
78 149
78 157
78 158
79 80
79 81
79 82
79 86
79 87
79 88
80 81
80 82
80 101
80 102
80 103
81 82
81 113
81 114
81 115
82 159
82 160
82 161
82 162
83 84
83 85
83 101
83 104
83 105
84 85
84 116
84 118
84 120
85 153
85 163
85 164
85 165
86 87
86 88
86 89
86 90
86 91
87 88
87 125
87 139
87 140
88 159
88 166
88 167
88 168
89 90
89 91
89 92
89 93
89 94
90 91
90 93
90 116
90 117
91 166
91 169
91 170
91 171
92 93
92 94
92 108
92 109
92 110
93 94
93 116
93 117
94 169
94 172
94 173
94 174
95 96
95 97
95 98
95 99
95 100
96 97
96 98
96 106
96 107
97 98
97 136
97 142
97 144
98 175
98 176
98 177
98 178
99 100
99 108
99 111
99 112
100 154
100 175
100 179
100 180
101 102
101 103
101 104
101 105
102 103
102 111
102 118
102 119
103 160
103 181
103 182
103 183
104 105
104 127
104 128
105 163
105 181
105 184
105 185
106 107
106 135
106 136
106 137
107 146
107 176
107 186
107 187
108 109
108 110
108 111
108 112
109 110
109 131
109 134
110 172
110 188
110 189
110 190
111 112
111 118
111 119
112 179
112 188
112 191
112 192
113 114
113 115
113 121
113 125
113 126
114 115
114 129
114 142
114 143
115 161
115 193
115 194
115 195
116 117
116 118
116 120
117 170
117 173
117 196
117 197
118 119
118 120
119 182
119 191
119 198
119 199
120 164
120 196
120 198
120 200
121 122
121 123
121 124
121 125
121 126
122 123
122 124
122 131
122 132
122 133
123 124
123 132
123 139
123 141
124 201
124 202
124 203
124 204
125 126
125 139
125 140
126 193
126 201
126 205
126 206
127 128
127 129
127 130
128 150
128 184
128 207
128 208
129 130
129 142
129 143
130 151
130 207
130 209
130 210
131 132
131 133
131 134
132 133
132 139
132 141
133 202
133 211
133 212
133 213
134 157
134 189
134 211
134 214
135 136
135 137
135 138
136 137
136 142
136 144
137 186
137 215
137 216
137 217
138 147
138 155
138 215
138 218
139 140
139 141
140 167
140 205
140 219
140 220
141 203
141 212
141 219
141 221
142 143
142 144
143 194
143 209
143 222
143 223
144 177
144 216
144 222
144 224
145 146
145 147
145 148
145 149
145 157
145 158
146 147
146 148
146 176
146 186
146 187
147 148
147 155
147 215
147 218
148 225
148 226
148 227
148 228
149 150
149 151
149 152
149 157
149 158
150 151
150 152
150 184
150 207
150 208
151 152
151 207
151 209
151 210
152 229
152 230
152 231
152 232
153 154
153 155
153 156
153 163
153 164
153 165
154 155
154 156
154 175
154 179
154 180
155 156
155 215
155 218
156 233
156 234
156 235
156 236
157 158
157 189
157 211
157 214
158 225
158 229
158 237
158 238
159 160
159 161
159 162
159 166
159 167
159 168
160 161
160 162
160 181
160 182
160 183
161 162
161 193
161 194
161 195
162 239
162 240
162 241
162 242
163 164
163 165
163 181
163 184
163 185
164 165
164 196
164 198
164 200
165 233
165 243
165 244
165 245
166 167
166 168
166 169
166 170
166 171
167 168
167 205
167 219
167 220
168 239
168 246
168 247
168 248
169 170
169 171
169 172
169 173
169 174
170 171
170 173
170 196
170 197
171 246
171 249
171 250
171 251
172 173
172 174
172 188
172 189
172 190
173 174
173 196
173 197
174 249
174 252
174 253
174 254
175 176
175 177
175 178
175 179
175 180
176 177
176 178
176 186
176 187
177 178
177 216
177 222
177 224
178 255
178 256
178 257
178 258
179 180
179 188
179 191
179 192
180 234
180 255
180 259
180 260
181 182
181 183
181 184
181 185
182 183
182 191
182 198
182 199
183 240
183 261
183 262
183 263
184 185
184 207
184 208
185 243
185 261
185 264
185 265
186 187
186 215
186 216
186 217
187 226
187 256
187 266
187 267
188 189
188 190
188 191
188 192
189 190
189 211
189 214
190 252
190 268
190 269
190 270
191 192
191 198
191 199
192 259
192 268
192 271
192 272
193 194
193 195
193 201
193 205
193 206
194 195
194 209
194 222
194 223
195 241
195 273
195 274
195 275
196 197
196 198
196 200
197 250
197 253
197 276
197 277
198 199
198 200
199 262
199 271
199 278
199 279
200 244
200 276
200 278
200 280
201 202
201 203
201 204
201 205
201 206
202 203
202 204
202 211
202 212
202 213
203 204
203 212
203 219
203 221
204 281
204 282
204 283
204 284
205 206
205 219
205 220
206 273
206 281
206 285
206 286
207 208
207 209
207 210
208 230
208 264
208 287
208 288
209 210
209 222
209 223
210 231
210 287
210 289
210 290
211 212
211 213
211 214
212 213
212 219
212 221
213 282
213 291
213 292
213 293
214 237
214 269
214 291
214 294
215 216
215 217
215 218
216 217
216 222
216 224
217 266
217 295
217 296
217 297
218 227
218 235
218 295
218 298
219 220
219 221
220 247
220 285
220 299
220 300
221 283
221 292
221 299
221 301
222 223
222 224
223 274
223 289
223 302
223 303
224 257
224 296
224 302
224 304
225 226
225 227
225 228
225 229
225 237
225 238
226 227
226 228
226 256
226 266
226 267
227 228
227 235
227 295
227 298
228 335
229 230
229 231
229 232
229 237
229 238
230 231
230 232
230 264
230 287
230 288
231 232
231 287
231 289
231 290
232 309
233 234
233 235
233 236
233 243
233 244
233 245
234 235
234 236
234 255
234 259
234 260
235 236
235 295
235 298
236 313
237 238
237 269
237 291
237 294
238 331
239 240
239 241
239 242
239 246
239 247
239 248
240 241
240 242
240 261
240 262
240 263
241 242
241 273
241 274
241 275
242 321
243 244
243 245
243 261
243 264
243 265
244 245
244 276
244 278
244 280
245 319
246 247
246 248
246 249
246 250
246 251
247 248
247 285
247 299
247 300
248 307
249 250
249 251
249 252
249 253
249 254
250 251
250 253
250 276
250 277
251 323
252 253
252 254
252 268
252 269
252 270
253 254
253 276
253 277
254 312
255 256
255 257
255 258
255 259
255 260
256 257
256 258
256 266
256 267
257 258
257 296
257 302
257 304
258 317
259 260
259 268
259 271
259 272
260 320
261 262
261 263
261 264
261 265
262 263
262 271
262 278
262 279
263 325
264 265
264 287
264 288
265 330
266 267
266 295
266 296
266 297
267 326
268 269
268 270
268 271
268 272
269 270
269 291
269 294
270 310
271 272
271 278
271 279
272 327
273 274
273 275
273 281
273 285
273 286
274 275
274 289
274 302
274 303
275 305
276 277
276 278
276 280
277 336
278 279
278 280
279 318
280 328
281 282
281 283
281 284
281 285
281 286
282 283
282 284
282 291
282 292
282 293
283 284
283 292
283 299
283 301
284 308
285 286
285 299
285 300
286 333
287 288
287 289
287 290
288 314
289 290
289 302
289 303
290 322
291 292
291 293
291 294
292 293
292 299
292 301
293 311
294 324
295 296
295 297
295 298
296 297
296 302
296 304
297 315
298 332
299 300
299 301
300 306
301 334
302 303
302 304
303 316
304 329
